274
0 1 0
1 2 0
2 2 1
3 3 0
4 3 1
5 3 2
6 4 0
7 4 1
8 4 2
9 4 3
10 5 0
11 5 1
12 5 2
13 5 3
14 5 4
15 6 0
16 6 1
17 6 2
18 6 3
19 6 4
20 6 5
21 7 0
22 7 1
23 7 2
24 7 4
25 7 5
26 7 6
27 8 1
28 8 2
29 8 3
30 8 4
31 8 5
32 8 6
33 9 0
34 9 1
35 9 2
36 9 3
37 9 4
38 9 5
39 9 6
40 9 7
41 9 8
42 10 0
43 10 1
44 10 2
45 10 5
46 10 6
47 10 7
48 10 8
49 10 9
50 11 0
51 11 1
52 11 2
53 11 3
54 11 5
55 11 6
56 11 7
57 11 8
58 11 9
59 11 10
60 12 0
61 12 1
62 12 2
63 12 3
64 12 4
65 12 5
66 12 6
67 12 7
68 12 8
69 12 9
70 12 10
71 13 0
72 13 1
73 13 3
74 13 5
75 13 6
76 13 7
77 13 8
78 13 9
79 13 10
80 13 11
81 13 12
82 14 0
83 14 1
84 14 2
85 14 3
86 14 4
87 14 5
88 14 6
89 14 7
90 14 9
91 14 10
92 14 11
93 14 12
94 14 13
95 15 0
96 15 1
97 15 2
98 15 3
99 15 4
100 15 5
101 15 6
102 15 7
103 15 8
104 15 9
105 15 10
106 15 11
107 15 12
108 15 13
109 16 0
110 16 2
111 16 3
112 16 4
113 16 5
114 16 6
115 16 7
116 16 8
117 16 9
118 16 10
119 16 11
120 16 12
121 16 13
122 16 14
123 16 15
124 17 0
125 17 1
126 17 2
127 17 3
128 17 4
129 17 5
130 17 6
131 17 7
132 17 8
133 17 10
134 17 11
135 17 12
136 17 13
137 17 14
138 17 15
139 17 16
140 18 0
141 18 1
142 18 2
143 18 3
144 18 4
145 18 5
146 18 6
147 18 7
148 18 8
149 18 9
150 18 11
151 18 12
152 18 13
153 18 15
154 18 16
155 18 17
156 19 0
157 19 1
158 19 2
159 19 3
160 19 4
161 19 5
162 19 7
163 19 8
164 19 9
165 19 10
166 19 12
167 19 13
168 19 14
169 19 15
170 19 16
171 19 17
172 19 18
173 20 0
174 20 2
175 20 3
176 20 4
177 20 5
178 20 6
179 20 7
180 20 8
181 20 9
182 20 10
183 20 11
184 20 12
185 20 13
186 20 14
187 20 16
188 20 17
189 20 18
190 20 19
191 21 1
192 21 2
193 21 3
194 21 4
195 21 5
196 21 6
197 21 7
198 21 8
199 21 9
200 21 10
201 21 11
202 21 12
203 21 13
204 21 14
205 21 15
206 21 16
207 21 17
208 21 18
209 21 19
210 21 20
211 22 0
212 22 1
213 22 2
214 22 3
215 22 6
216 22 7
217 22 8
218 22 9
219 22 10
220 22 11
221 22 12
222 22 13
223 22 14
224 22 15
225 22 16
226 22 17
227 22 18
228 22 19
229 22 20
230 22 21
231 23 0
232 23 1
233 23 2
234 23 3
235 23 4
236 23 5
237 23 6
238 23 7
239 23 8
240 23 9
241 23 10
242 23 11
243 23 12
244 23 13
245 23 14
246 23 15
247 23 17
248 23 18
249 23 19
250 23 22
251 24 0
252 24 1
253 24 2
254 24 3
255 24 4
256 24 5
257 24 6
258 24 7
259 24 8
260 24 9
261 24 10
262 24 11
263 24 12
264 24 13
265 24 14
266 24 15
267 24 16
268 24 17
269 24 19
270 24 20
271 24 21
272 24 22
273 24 23
